NAME: GRASP_27_12
TYPE: TSP
COMMENT: line_27_12
DIMENSION: 27
EDGE_WEIGHT_TYPE: EUC_2D
NODE_COORD_SECTION
1 1979 4018
2 2699 4827
3 313 3415
4 2238 4799
5 3484 3019
6 794 3569
7 427 4451
8 2829 1037
9 4201 1826
10 2754 3443
11 3106 3777
12 4284 2862
13 4766 4374
14 3196 348
15 2129 1713
16 3211 2108
17 3743 1103
18 1072 1080
19 3488 1459
20 2292 1194
21 795 2849
22 764 1905
23 2787 1999
24 1864 4750
25 3491 1768
26 3376 4998
27 3003 3836
